(declare-const a Real)
(declare-const b Real)
(declare-const c Real)
(assert (= (* a b c) 1))
(assert (> a 0))
(assert (> b 0))
(assert (> c 0))
(assert (not (<= (+ (* -169665216 (pow b 4)) (* -130147008 (pow a 4)) (* (pow (+ 19979136 (* 185332992 b (pow a 3))) -1) (pow (+ (* 19979136 a b) (* 185332992 b (pow a 3))) 2)) (* -339738624 (pow a (pow 3 -1)) (pow b (/ 11 3))) (* -169869312 (pow a (/ 10 3)) (pow b (/ 2 3))) (* 604108032 a (pow b 3))) 0)))
(check-sat)
(get-model)
(exit)